Route #1: 9 3 10 41 33 21 5 20 13
Route #2: 43 29 28 32 22 23
Route #3: 7 26 37 30 19 34 24 6
Route #4: 27 11 40 18 17 42 12 2 25
Route #5: 1 44 35 31 14 38
Route #6: 39 36 4 16 8 15
cost 1209.3365478515625